p cnf 386 460
11 -4 7 21 22 0
11 -4 7 21 -22 0
11 -4 7 -21 23 0
11 -4 7 -21 -23 0
-7 -16 -19 24 25 0
-7 -16 -19 24 -25 0
-7 -16 -19 -24 26 0
-7 -16 -19 -24 -26 0
-18 13 -6 27 28 0
-18 13 -6 27 -28 0
-18 13 -6 -27 29 0
-18 13 -6 -27 -29 0
-13 2 14 30 31 0
-13 2 14 30 -31 0
-13 2 14 -30 32 0
-13 2 14 -30 -32 0
-12 9 -20 33 34 0
-12 9 -20 33 -34 0
-12 9 -20 -33 35 0
-12 9 -20 -33 -35 0
2 -6 11 36 37 0
2 -6 11 36 -37 0
2 -6 11 -36 38 0
2 -6 11 -36 -38 0
11 -20 -1 39 40 0
11 -20 -1 39 -40 0
11 -20 -1 -39 41 0
11 -20 -1 -39 -41 0
-8 11 -10 42 43 0
-8 11 -10 42 -43 0
-8 11 -10 -42 44 0
-8 11 -10 -42 -44 0
9 -19 -15 45 46 0
9 -19 -15 45 -46 0
9 -19 -15 -45 47 0
9 -19 -15 -45 -47 0
6 8 -19 48 49 0
6 8 -19 48 -49 0
6 8 -19 -48 50 0
6 8 -19 -48 -50 0
14 -15 -8 51 52 0
14 -15 -8 51 -52 0
14 -15 -8 -51 53 0
14 -15 -8 -51 -53 0
-5 -20 -7 54 55 0
-5 -20 -7 54 -55 0
-5 -20 -7 -54 56 0
-5 -20 -7 -54 -56 0
-9 -6 -15 57 58 0
-9 -6 -15 57 -58 0
-9 -6 -15 -57 59 0
-9 -6 -15 -57 -59 0
-13 20 -10 60 61 0
-13 20 -10 60 -61 0
-13 20 -10 -60 62 0
-13 20 -10 -60 -62 0
19 -11 -16 63 64 0
19 -11 -16 63 -64 0
19 -11 -16 -63 65 0
19 -11 -16 -63 -65 0
20 10 4 66 67 0
20 10 4 66 -67 0
20 10 4 -66 68 0
20 10 4 -66 -68 0
11 10 9 69 70 0
11 10 9 69 -70 0
11 10 9 -69 71 0
11 10 9 -69 -71 0
-17 12 11 72 73 0
-17 12 11 72 -73 0
-17 12 11 -72 74 0
-17 12 11 -72 -74 0
-5 -3 -8 75 76 0
-5 -3 -8 75 -76 0
-5 -3 -8 -75 77 0
-5 -3 -8 -75 -77 0
11 -12 -3 78 79 0
11 -12 -3 78 -79 0
11 -12 -3 -78 80 0
11 -12 -3 -78 -80 0
2 19 -8 81 82 0
2 19 -8 81 -82 0
2 19 -8 -81 83 0
2 19 -8 -81 -83 0
-7 15 -6 84 85 0
-7 15 -6 84 -85 0
-7 15 -6 -84 86 0
-7 15 -6 -84 -86 0
18 -20 -3 87 88 0
18 -20 -3 87 -88 0
18 -20 -3 -87 89 0
18 -20 -3 -87 -89 0
16 -3 -10 90 91 0
16 -3 -10 90 -91 0
16 -3 -10 -90 92 0
16 -3 -10 -90 -92 0
-1 -18 7 93 94 0
-1 -18 7 93 -94 0
-1 -18 7 -93 95 0
-1 -18 7 -93 -95 0
18 -3 -14 96 97 0
18 -3 -14 96 -97 0
18 -3 -14 -96 98 0
18 -3 -14 -96 -98 0
-16 -5 -14 99 100 0
-16 -5 -14 99 -100 0
-16 -5 -14 -99 101 0
-16 -5 -14 -99 -101 0
-19 10 12 102 103 0
-19 10 12 102 -103 0
-19 10 12 -102 104 0
-19 10 12 -102 -104 0
-18 -15 -16 105 106 0
-18 -15 -16 105 -106 0
-18 -15 -16 -105 107 0
-18 -15 -16 -105 -107 0
11 1 -15 108 109 0
11 1 -15 108 -109 0
11 1 -15 -108 110 0
11 1 -15 -108 -110 0
7 2 13 111 112 0
7 2 13 111 -112 0
7 2 13 -111 113 0
7 2 13 -111 -113 0
10 15 6 114 115 0
10 15 6 114 -115 0
10 15 6 -114 116 0
10 15 6 -114 -116 0
-5 -14 17 117 118 0
-5 -14 17 117 -118 0
-5 -14 17 -117 119 0
-5 -14 17 -117 -119 0
17 13 -19 120 121 0
17 13 -19 120 -121 0
17 13 -19 -120 122 0
17 13 -19 -120 -122 0
20 -8 -9 123 124 0
20 -8 -9 123 -124 0
20 -8 -9 -123 125 0
20 -8 -9 -123 -125 0
-12 -18 -13 126 127 0
-12 -18 -13 126 -127 0
-12 -18 -13 -126 128 0
-12 -18 -13 -126 -128 0
-7 15 6 129 130 0
-7 15 6 129 -130 0
-7 15 6 -129 131 0
-7 15 6 -129 -131 0
-18 5 4 132 133 0
-18 5 4 132 -133 0
-18 5 4 -132 134 0
-18 5 4 -132 -134 0
-17 -2 14 135 136 0
-17 -2 14 135 -136 0
-17 -2 14 -135 137 0
-17 -2 14 -135 -137 0
-8 11 -16 138 139 0
-8 11 -16 138 -139 0
-8 11 -16 -138 140 0
-8 11 -16 -138 -140 0
6 3 8 141 142 0
6 3 8 141 -142 0
6 3 8 -141 143 0
6 3 8 -141 -143 0
10 -16 14 144 145 0
10 -16 14 144 -145 0
10 -16 14 -144 146 0
10 -16 14 -144 -146 0
-20 1 7 147 148 0
-20 1 7 147 -148 0
-20 1 7 -147 149 0
-20 1 7 -147 -149 0
9 -6 2 150 151 0
9 -6 2 150 -151 0
9 -6 2 -150 152 0
9 -6 2 -150 -152 0
-11 7 2 153 154 0
-11 7 2 153 -154 0
-11 7 2 -153 155 0
-11 7 2 -153 -155 0
-17 -11 -10 156 157 0
-17 -11 -10 156 -157 0
-17 -11 -10 -156 158 0
-17 -11 -10 -156 -158 0
14 -12 -1 159 160 0
14 -12 -1 159 -160 0
14 -12 -1 -159 161 0
14 -12 -1 -159 -161 0
-9 1 13 162 163 0
-9 1 13 162 -163 0
-9 1 13 -162 164 0
-9 1 13 -162 -164 0
-19 -11 -4 165 166 0
-19 -11 -4 165 -166 0
-19 -11 -4 -165 167 0
-19 -11 -4 -165 -167 0
-1 3 2 168 169 0
-1 3 2 168 -169 0
-1 3 2 -168 170 0
-1 3 2 -168 -170 0
-14 -13 -19 171 172 0
-14 -13 -19 171 -172 0
-14 -13 -19 -171 173 0
-14 -13 -19 -171 -173 0
-5 -2 -19 174 175 0
-5 -2 -19 174 -175 0
-5 -2 -19 -174 176 0
-5 -2 -19 -174 -176 0
-2 17 -11 177 178 0
-2 17 -11 177 -178 0
-2 17 -11 -177 179 0
-2 17 -11 -177 -179 0
14 16 8 180 181 0
14 16 8 180 -181 0
14 16 8 -180 182 0
14 16 8 -180 -182 0
-12 -10 9 183 184 0
-12 -10 9 183 -184 0
-12 -10 9 -183 185 0
-12 -10 9 -183 -185 0
-6 -17 -14 186 187 0
-6 -17 -14 186 -187 0
-6 -17 -14 -186 188 0
-6 -17 -14 -186 -188 0
-18 -13 -11 189 190 0
-18 -13 -11 189 -190 0
-18 -13 -11 -189 191 0
-18 -13 -11 -189 -191 0
-11 -3 8 192 193 0
-11 -3 8 192 -193 0
-11 -3 8 -192 194 0
-11 -3 8 -192 -194 0
-12 -10 -9 195 196 0
-12 -10 -9 195 -196 0
-12 -10 -9 -195 197 0
-12 -10 -9 -195 -197 0
-11 9 7 198 199 0
-11 9 7 198 -199 0
-11 9 7 -198 200 0
-11 9 7 -198 -200 0
2 -7 -16 201 202 0
2 -7 -16 201 -202 0
2 -7 -16 -201 203 0
2 -7 -16 -201 -203 0
-1 9 -5 204 205 0
-1 9 -5 204 -205 0
-1 9 -5 -204 206 0
-1 9 -5 -204 -206 0
-5 3 -20 207 208 0
-5 3 -20 207 -208 0
-5 3 -20 -207 209 0
-5 3 -20 -207 -209 0
6 -14 11 210 211 0
6 -14 11 210 -211 0
6 -14 11 -210 212 0
6 -14 11 -210 -212 0
-13 17 1 213 214 0
-13 17 1 213 -214 0
-13 17 1 -213 215 0
-13 17 1 -213 -215 0
1 -3 -18 216 217 0
1 -3 -18 216 -217 0
1 -3 -18 -216 218 0
1 -3 -18 -216 -218 0
-4 8 -15 219 220 0
-4 8 -15 219 -220 0
-4 8 -15 -219 221 0
-4 8 -15 -219 -221 0
2 10 17 222 223 0
2 10 17 222 -223 0
2 10 17 -222 224 0
2 10 17 -222 -224 0
-12 16 3 225 226 0
-12 16 3 225 -226 0
-12 16 3 -225 227 0
-12 16 3 -225 -227 0
8 3 5 228 229 0
8 3 5 228 -229 0
8 3 5 -228 230 0
8 3 5 -228 -230 0
3 7 -5 231 232 0
3 7 -5 231 -232 0
3 7 -5 -231 233 0
3 7 -5 -231 -233 0
10 14 11 234 235 0
10 14 11 234 -235 0
10 14 11 -234 236 0
10 14 11 -234 -236 0
8 -11 19 237 238 0
8 -11 19 237 -238 0
8 -11 19 -237 239 0
8 -11 19 -237 -239 0
1 9 16 240 241 0
1 9 16 240 -241 0
1 9 16 -240 242 0
1 9 16 -240 -242 0
-8 -12 5 243 244 0
-8 -12 5 243 -244 0
-8 -12 5 -243 245 0
-8 -12 5 -243 -245 0
20 17 16 246 247 0
20 17 16 246 -247 0
20 17 16 -246 248 0
20 17 16 -246 -248 0
-20 -12 -15 249 250 0
-20 -12 -15 249 -250 0
-20 -12 -15 -249 251 0
-20 -12 -15 -249 -251 0
-13 6 -11 252 253 0
-13 6 -11 252 -253 0
-13 6 -11 -252 254 0
-13 6 -11 -252 -254 0
-15 -11 7 255 256 0
-15 -11 7 255 -256 0
-15 -11 7 -255 257 0
-15 -11 7 -255 -257 0
-6 -7 14 258 259 0
-6 -7 14 258 -259 0
-6 -7 14 -258 260 0
-6 -7 14 -258 -260 0
17 -16 -19 261 262 0
17 -16 -19 261 -262 0
17 -16 -19 -261 263 0
17 -16 -19 -261 -263 0
-2 10 14 264 265 0
-2 10 14 264 -265 0
-2 10 14 -264 266 0
-2 10 14 -264 -266 0
-4 13 -15 267 268 0
-4 13 -15 267 -268 0
-4 13 -15 -267 269 0
-4 13 -15 -267 -269 0
-6 3 9 270 271 0
-6 3 9 270 -271 0
-6 3 9 -270 272 0
-6 3 9 -270 -272 0
-1 6 9 273 274 0
-1 6 9 273 -274 0
-1 6 9 -273 275 0
-1 6 9 -273 -275 0
-17 20 5 276 277 0
-17 20 5 276 -277 0
-17 20 5 -276 278 0
-17 20 5 -276 -278 0
15 -2 -11 279 280 0
15 -2 -11 279 -280 0
15 -2 -11 -279 281 0
15 -2 -11 -279 -281 0
-17 -11 12 282 283 0
-17 -11 12 282 -283 0
-17 -11 12 -282 284 0
-17 -11 12 -282 -284 0
17 1 18 285 286 0
17 1 18 285 -286 0
17 1 18 -285 287 0
17 1 18 -285 -287 0
9 7 -10 288 289 0
9 7 -10 288 -289 0
9 7 -10 -288 290 0
9 7 -10 -288 -290 0
-19 9 2 291 292 0
-19 9 2 291 -292 0
-19 9 2 -291 293 0
-19 9 2 -291 -293 0
294 295 297 301 309 0
294 295 297 301 -309 0
294 295 297 -301 310 0
294 295 297 -301 -310 0
294 295 -297 302 311 0
294 295 -297 302 -311 0
294 295 -297 -302 312 0
294 295 -297 -302 -312 0
294 -295 298 303 313 0
294 -295 298 303 -313 0
294 -295 298 -303 314 0
294 -295 298 -303 -314 0
294 -295 -298 304 315 0
294 -295 -298 304 -315 0
294 -295 -298 -304 316 0
294 -295 -298 -304 -316 0
-294 296 299 305 317 0
-294 296 299 305 -317 0
-294 296 299 -305 318 0
-294 296 299 -305 -318 0
-294 296 -299 306 319 0
-294 296 -299 306 -319 0
-294 296 -299 -306 320 0
-294 296 -299 -306 -320 0
-294 -296 300 307 321 0
-294 -296 300 307 -321 0
-294 -296 300 -307 322 0
-294 -296 300 -307 -322 0
-294 -296 -300 308 323 0
-294 -296 -300 308 -323 0
-294 -296 -300 -308 324 0
-294 -296 -300 -308 -324 0
325 326 328 332 340 0
325 326 328 332 -340 0
325 326 328 -332 341 0
325 326 328 -332 -341 0
325 326 -328 333 342 0
325 326 -328 333 -342 0
325 326 -328 -333 343 0
325 326 -328 -333 -343 0
325 -326 329 334 344 0
325 -326 329 334 -344 0
325 -326 329 -334 345 0
325 -326 329 -334 -345 0
325 -326 -329 335 346 0
325 -326 -329 335 -346 0
325 -326 -329 -335 347 0
325 -326 -329 -335 -347 0
-325 327 330 336 348 0
-325 327 330 336 -348 0
-325 327 330 -336 349 0
-325 327 330 -336 -349 0
-325 327 -330 337 350 0
-325 327 -330 337 -350 0
-325 327 -330 -337 351 0
-325 327 -330 -337 -351 0
-325 -327 331 338 352 0
-325 -327 331 338 -352 0
-325 -327 331 -338 353 0
-325 -327 331 -338 -353 0
-325 -327 -331 339 354 0
-325 -327 -331 339 -354 0
-325 -327 -331 -339 355 0
-325 -327 -331 -339 -355 0
356 357 359 363 371 0
356 357 359 363 -371 0
356 357 359 -363 372 0
356 357 359 -363 -372 0
356 357 -359 364 373 0
356 357 -359 364 -373 0
356 357 -359 -364 374 0
356 357 -359 -364 -374 0
356 -357 360 365 375 0
356 -357 360 365 -375 0
356 -357 360 -365 376 0
356 -357 360 -365 -376 0
356 -357 -360 366 377 0
356 -357 -360 366 -377 0
356 -357 -360 -366 378 0
356 -357 -360 -366 -378 0
-356 358 361 367 379 0
-356 358 361 367 -379 0
-356 358 361 -367 380 0
-356 358 361 -367 -380 0
-356 358 -361 368 381 0
-356 358 -361 368 -381 0
-356 358 -361 -368 382 0
-356 358 -361 -368 -382 0
-356 -358 362 369 383 0
-356 -358 362 369 -383 0
-356 -358 362 -369 384 0
-356 -358 362 -369 -384 0
-356 -358 -362 370 385 0
-356 -358 -362 370 -385 0
-356 -358 -362 -370 386 0
-356 -358 -362 -370 -386 0

